 &control
  calculation = 'scf'
  prefix = 'Ba8_Cu16_As30'
  outdir = './'
  pseudo_dir = 'pseudo'
  tstress = .t.
  tprnfor = .t.
 /

 &system
  ibrav = 0
  nat = 216
  ntyp = 3
  ecutwfc = 50.0
  ecutrho = 250.0
  occupations = 'smearing'
  smearing = 'mv'
  degauss = 0.01
 /

 &electrons
  conv_thr = 1.0d-5
  mixing_beta = 1.0d-1
  electron_maxstep = 180
 /

ATOMIC_SPECIES
 In 114.818 In.pbe-dn-kjpaw_psl.1.0.0.UPF
 As 74.922 As.pbe-n-kjpaw_psl.1.0.0.UPF
 Cs 132.905 Cs.pbe-spn-kjpaw_psl.1.0.0.UPF

CELL_PARAMETERS bohr
 45.0 0.0 0.0
 0.0 45.0 0.0
 0.0 0.0 22.5

ATOMIC_POSITIONS crystal
 Cs -0.00053261895 0.003684142 0.0062830509
 Cs 0.24897582405 0.24916244135 0.5026830687
 Cs -0.00055843865 0.24988981885 0.2341897896
 Cs 0.00037422375 0.2480476133 0.7559495275
 Cs 0.1250679648 0.0014075327 0.4964720289
 Cs 0.3804642812 0.0018814506 0.5048197539
 Cs 0.25084506735 0.1227470323 0.0013752339
 Cs 0.24802885765 0.3794019395 0.0005383612
 Cs -0.00053261895 0.503684142 0.0062830509
 Cs 0.24897582405 0.74916244135 0.5026830687
 Cs -0.00055843865 0.7498898188500001 0.2341897896
 Cs 0.00037422375 0.7480476133 0.7559495275
 Cs 0.1250679648 0.5014075327 0.4964720289
 Cs 0.3804642812 0.5018814506 0.5048197539
 Cs 0.25084506735 0.6227470323 0.0013752339
 Cs 0.24802885765 0.8794019395 0.0005383612
 Cs 0.49946738105 0.003684142 0.0062830509
 Cs 0.74897582405 0.24916244135 0.5026830687
 Cs 0.49944156135 0.24988981885 0.2341897896
 Cs 0.50037422375 0.2480476133 0.7559495275
 Cs 0.6250679647999999 0.0014075327 0.4964720289
 Cs 0.8804642812 0.0018814506 0.5048197539
 Cs 0.75084506735 0.1227470323 0.0013752339
 Cs 0.74802885765 0.3794019395 0.0005383612
 Cs 0.49946738105 0.503684142 0.0062830509
 Cs 0.74897582405 0.74916244135 0.5026830687
 Cs 0.49944156135 0.7498898188500001 0.2341897896
 Cs 0.50037422375 0.7480476133 0.7559495275
 Cs 0.6250679647999999 0.5014075327 0.4964720289
 Cs 0.8804642812 0.5018814506 0.5048197539
 Cs 0.75084506735 0.6227470323 0.0013752339
 Cs 0.74802885765 0.8794019395 0.0005383612
 In -0.09325738665 0.0906626509 -0.1874380973
 In 0.0932878703 -0.09198518585 0.183999477
 In -0.00111403185 0.0546101396 0.3044601736
 In -0.0011338566 -0.0603439924 -0.3048253624
 In 0.1571382669 -6.59383e-05 0.1107019067
 In 0.05394588475 0.14993664355 -0.0002080376
 In -0.0593625617 -0.15303729085 0.0007176007
 In -0.15399602225 -0.0002093457 0.1144465637
 In 0.1531635623 -0.0007814836 -0.1178601037
 In -0.0551502482 0.15099817205 0.0004377022
 In 0.12631313 0.25246401635 -0.0001691938
 In 0.0002154953 0.1265551938 0.5011907193
 In 0.375439609 0.25049668615 0.0024970052
 In -0.0006045146 0.37990444195 0.4987889903
 In 0.25141773595 0.0002197265 0.7552462363
 In 0.24874743025 -0.40146994865 0.6212739915
 In 0.308765232 0.2498595391 0.807373638
 In -0.3074566739 0.25013309775 -0.805765516
 In -0.4041705761 0.30912893105 0.5000768559
 In 0.40385968995 -0.3083077928 0.5025239088
 In 0.34218540005 0.3405881278 0.6837213237
 In -0.3399860742 -0.3414282407 -0.6803101019
 In 0.3408838561 -0.34132680275 -0.6831325541
 In -0.3434939851 -0.3397201368 0.6816107869
 In -0.34090062745 0.3404174878 0.6846761666
 In 0.3412554252 0.34282223195 -0.6852875813
 In 0.2469235194 0.4050487723 -0.6163292525
 In -0.09325738665 0.5906626509 -0.1874380973
 In 0.0932878703 0.40801481415 0.183999477
 In -0.00111403185 0.5546101396 0.3044601736
 In -0.0011338566 0.4396560076 -0.3048253624
 In 0.1571382669 0.4999340617 0.1107019067
 In 0.05394588475 0.64993664355 -0.0002080376
 In -0.0593625617 0.34696270915 0.0007176007
 In -0.15399602225 0.4997906543 0.1144465637
 In 0.1531635623 0.4992185164 -0.1178601037
 In -0.0551502482 0.65099817205 0.0004377022
 In 0.12631313 0.75246401635 -0.0001691938
 In 0.0002154953 0.6265551938 0.5011907193
 In 0.375439609 0.75049668615 0.0024970052
 In -0.0006045146 0.87990444195 0.4987889903
 In 0.25141773595 0.5002197265 0.7552462363
 In 0.24874743025 0.09853005134999998 0.6212739915
 In 0.308765232 0.7498595391 0.807373638
 In -0.3074566739 0.75013309775 -0.805765516
 In -0.4041705761 0.80912893105 0.5000768559
 In 0.40385968995 0.19169220720000002 0.5025239088
 In 0.34218540005 0.8405881278 0.6837213237
 In -0.3399860742 0.1585717593 -0.6803101019
 In 0.3408838561 0.15867319725 -0.6831325541
 In -0.3434939851 0.16027986319999998 0.6816107869
 In -0.34090062745 0.8404174877999999 0.6846761666
 In 0.3412554252 0.8428222319500001 -0.6852875813
 In 0.2469235194 0.9050487723 -0.6163292525
 In 0.40674261335 0.0906626509 -0.1874380973
 In 0.5932878703 -0.09198518585 0.183999477
 In 0.49888596815 0.0546101396 0.3044601736
 In 0.4988661434 -0.0603439924 -0.3048253624
 In 0.6571382669 -6.59383e-05 0.1107019067
 In 0.55394588475 0.14993664355 -0.0002080376
 In 0.4406374383 -0.15303729085 0.0007176007
 In 0.34600397775 -0.0002093457 0.1144465637
 In 0.6531635623000001 -0.0007814836 -0.1178601037
 In 0.44484975179999997 0.15099817205 0.0004377022
 In 0.62631313 0.25246401635 -0.0001691938
 In 0.5002154953 0.1265551938 0.5011907193
 In 0.8754396090000001 0.25049668615 0.0024970052
 In 0.4993954854 0.37990444195 0.4987889903
 In 0.75141773595 0.0002197265 0.7552462363
 In 0.74874743025 -0.40146994865 0.6212739915
 In 0.8087652320000001 0.2498595391 0.807373638
 In 0.19254332610000002 0.25013309775 -0.805765516
 In 0.09582942389999999 0.30912893105 0.5000768559
 In 0.90385968995 -0.3083077928 0.5025239088
 In 0.84218540005 0.3405881278 0.6837213237
 In 0.1600139258 -0.3414282407 -0.6803101019
 In 0.8408838561 -0.34132680275 -0.6831325541
 In 0.1565060149 -0.3397201368 0.6816107869
 In 0.15909937255 0.3404174878 0.6846761666
 In 0.8412554252 0.34282223195 -0.6852875813
 In 0.7469235194 0.4050487723 -0.6163292525
 In 0.40674261335 0.5906626509 -0.1874380973
 In 0.5932878703 0.40801481415 0.183999477
 In 0.49888596815 0.5546101396 0.3044601736
 In 0.4988661434 0.4396560076 -0.3048253624
 In 0.6571382669 0.4999340617 0.1107019067
 In 0.55394588475 0.64993664355 -0.0002080376
 In 0.4406374383 0.34696270915 0.0007176007
 In 0.34600397775 0.4997906543 0.1144465637
 In 0.6531635623000001 0.4992185164 -0.1178601037
 In 0.44484975179999997 0.65099817205 0.0004377022
 In 0.62631313 0.75246401635 -0.0001691938
 In 0.5002154953 0.6265551938 0.5011907193
 In 0.8754396090000001 0.75049668615 0.0024970052
 In 0.4993954854 0.87990444195 0.4987889903
 In 0.75141773595 0.5002197265 0.7552462363
 In 0.74874743025 0.09853005134999998 0.6212739915
 In 0.8087652320000001 0.7498595391 0.807373638
 In 0.19254332610000002 0.75013309775 -0.805765516
 In 0.09582942389999999 0.80912893105 0.5000768559
 In 0.90385968995 0.19169220720000002 0.5025239088
 In 0.84218540005 0.8405881278 0.6837213237
 In 0.1600139258 0.1585717593 -0.6803101019
 In 0.8408838561 0.15867319725 -0.6831325541
 In 0.1565060149 0.16027986319999998 0.6816107869
 In 0.15909937255 0.8404174877999999 0.6846761666
 In 0.8412554252 0.8428222319500001 -0.6852875813
 In 0.7469235194 0.9050487723 -0.6163292525
 As 0.09364997045 0.0911113432 0.1873224375
 As -0.09364424945 -0.0916978776 -0.1859442969
 As 0.09303591635 -0.0931206419 -0.1845203365
 As -0.0918027747 -0.09068778315 0.1814464523
 As -0.09223185665 0.0905089189 0.1849038884
 As 0.092550098 0.0924427795 -0.1880237065
 As -0.1553594807 -0.0016976657 -0.1178268861
 As 0.00037127015 0.0565336298 -0.3090282263
 As -0.0012173028 -0.0599382275 0.303333086
 As 0.0569525577 -0.15500142605 0.0027653606
 As 0.25039473645 -0.0004670921 0.2499109324
 As 0.2496914967 0.40284723975 0.6211651204
 As 0.25052525675 -0.40546389315 -0.614309716
 As -0.30918705455 0.2501934383 0.805294599
 As 0.4049948003 0.3100451494 0.5012363843
 As -0.4039838395 -0.30890582335 0.501605097
 As -0.33939333165 0.34177128625 -0.6824571206
 As 0.34270741465 -0.3402872527 0.6793904885
 As 0.3063656629 0.25042222705 -0.8109916181
 As 0.09364997045 0.5911113432 0.1873224375
 As -0.09364424945 0.40830212239999997 -0.1859442969
 As 0.09303591635 0.4068793581 -0.1845203365
 As -0.0918027747 0.40931221684999997 0.1814464523
 As -0.09223185665 0.5905089189 0.1849038884
 As 0.092550098 0.5924427795 -0.1880237065
 As -0.1553594807 0.4983023343 -0.1178268861
 As 0.00037127015 0.5565336298 -0.3090282263
 As -0.0012173028 0.4400617725 0.303333086
 As 0.0569525577 0.34499857395 0.0027653606
 As 0.25039473645 0.4995329079 0.2499109324
 As 0.2496914967 0.90284723975 0.6211651204
 As 0.25052525675 0.09453610685000002 -0.614309716
 As -0.30918705455 0.7501934383 0.805294599
 As 0.4049948003 0.8100451494 0.5012363843
 As -0.4039838395 0.19109417665 0.501605097
 As -0.33939333165 0.84177128625 -0.6824571206
 As 0.34270741465 0.1597127473 0.6793904885
 As 0.3063656629 0.7504222270500001 -0.8109916181
 As 0.59364997045 0.0911113432 0.1873224375
 As 0.40635575055 -0.0916978776 -0.1859442969
 As 0.59303591635 -0.0931206419 -0.1845203365
 As 0.4081972253 -0.09068778315 0.1814464523
 As 0.40776814335 0.0905089189 0.1849038884
 As 0.592550098 0.0924427795 -0.1880237065
 As 0.3446405193 -0.0016976657 -0.1178268861
 As 0.50037127015 0.0565336298 -0.3090282263
 As 0.4987826972 -0.0599382275 0.303333086
 As 0.5569525577 -0.15500142605 0.0027653606
 As 0.75039473645 -0.0004670921 0.2499109324
 As 0.7496914967 0.40284723975 0.6211651204
 As 0.75052525675 -0.40546389315 -0.614309716
 As 0.19081294545 0.2501934383 0.805294599
 As 0.9049948003 0.3100451494 0.5012363843
 As 0.0960161605 -0.30890582335 0.501605097
 As 0.16060666834999998 0.34177128625 -0.6824571206
 As 0.84270741465 -0.3402872527 0.6793904885
 As 0.8063656629 0.25042222705 -0.8109916181
 As 0.59364997045 0.5911113432 0.1873224375
 As 0.40635575055 0.40830212239999997 -0.1859442969
 As 0.59303591635 0.4068793581 -0.1845203365
 As 0.4081972253 0.40931221684999997 0.1814464523
 As 0.40776814335 0.5905089189 0.1849038884
 As 0.592550098 0.5924427795 -0.1880237065
 As 0.3446405193 0.4983023343 -0.1178268861
 As 0.50037127015 0.5565336298 -0.3090282263
 As 0.4987826972 0.4400617725 0.303333086
 As 0.5569525577 0.34499857395 0.0027653606
 As 0.75039473645 0.4995329079 0.2499109324
 As 0.7496914967 0.90284723975 0.6211651204
 As 0.75052525675 0.09453610685000002 -0.614309716
 As 0.19081294545 0.7501934383 0.805294599
 As 0.9049948003 0.8100451494 0.5012363843
 As 0.0960161605 0.19109417665 0.501605097
 As 0.16060666834999998 0.84177128625 -0.6824571206
 As 0.84270741465 0.1597127473 0.6793904885
 As 0.8063656629 0.7504222270500001 -0.8109916181

K_POINTS automatic
 3 3 3 0 0 0

