 &control
  calculation = 'scf'
  prefix = 'BaCuAs_SS'
  outdir = './'
  pseudo_dir = '/home/ftc/BaCuAs/'
  tstress = .t.
 /

 &system
  ibrav = 0
  nat = 432
  ntyp = 3
  ecutwfc = 45.0
  ecutrho = 236.0
  occupations = 'smearing'
  smearing = 'mv'
  degauss = 0.005
 /

 &electrons
  conv_thr = 1.0d-6
  mixing_beta = 0.15d0
  electron_maxstep = 100
 /

ATOMIC_SPECIES
 Cu 63.546 Cu.pbe-dn-kjpaw_psl.1.0.0.UPF
 Ba 137.327 Ba.pbe-spn-kjpaw_psl.1.0.0.UPF
 As 74.922 As.pbe-n-kjpaw_psl.1.0.0.UPF

CELL_PARAMETERS angstrom
 39.9223542 0.0 0.0
 0.0 39.9223542 0.0
 0.0 0.0 39.9223542

ATOMIC_POSITIONS crystal
 Ba 0.0 0.0 0.0
 Ba 0.2474751827010242 0.2474751827010242 0.2474751827010242
 Ba 0.0 0.36883702365803867 0.2563842703442073
 Ba 0.0 0.12611334174400968 0.2563842703442073
 Ba 0.12611334174400968 0.2563842703442073 0.0
 Ba 0.3735885244450338 0.2474751827010242 0.008909087643183126
 Ba 0.2474751827010242 0.008909087643183126 0.3735885244450338
 Ba 0.2474751827010242 0.008909087643183126 0.1213618409570145
 As 0.0 0.15204873521086085 0.05865163960095318
 Cu 0.0 0.3429015828560531 0.43629872580109513
 As 0.0 0.3429015828560531 0.05865163960095318
 Cu 0.0 0.15204873521086085 0.43629872580109513
 As 0.05865163960095318 0.0 0.15204873521086085
 Cu 0.43629872580109513 0.0 0.3429015828560531
 As 0.05865163960095318 0.0 0.3429015828560531
 As 0.43629872580109513 0.0 0.15204873521086085
 As 0.15204873521086085 0.05865163960095318 0.0
 Cu 0.3429015828560531 0.43629872580109513 0.0
 As 0.3429015828560531 0.05865163960095318 0.0
 Cu 0.15204873521086085 0.43629872580109513 0.0
 Cu 0.399523917911885 0.2474751827010242 0.188823543100071
 Cu 0.09542640015502893 0.2474751827010242 0.306126774966843
 As 0.09542640015502893 0.2474751827010242 0.188823543100071
 Cu 0.399523917911885 0.2474751827010242 0.306126774966843
 Cu 0.2474751827010242 0.306126774966843 0.09542640015502893
 Cu 0.2474751827010242 0.188823543100071 0.399523917911885
 Cu 0.2474751827010242 0.306126774966843 0.399523917911885
 As 0.2474751827010242 0.188823543100071 0.09542640015502893
 Cu 0.306126774966843 0.399523917911885 0.2474751827010242
 Cu 0.188823543100071 0.09542640015502893 0.2474751827010242
 As 0.306126774966843 0.09542640015502893 0.2474751827010242
 Cu 0.188823543100071 0.399523917911885 0.2474751827010242
 Cu 0.09196179966586239 0.09196179966586239 0.09196179966586239
 As 0.40298856573618597 0.40298856573618597 0.40298856573618597
 Cu 0.40298856573618597 0.40298856573618597 0.09196179966586239
 Cu 0.09196179966586239 0.09196179966586239 0.40298856573618597
 As 0.40298856573618597 0.09196179966586239 0.40298856573618597
 Cu 0.09196179966586239 0.40298856573618597 0.09196179966586239
 Cu 0.09196179966586239 0.40298856573618597 0.40298856573618597
 Cu 0.40298856573618597 0.09196179966586239 0.09196179966586239
 As 0.3394369350317522 0.3394369350317522 0.1555133830351618
 As 0.1555133830351618 0.1555133830351618 0.3394369350317522
 Cu 0.1555133830351618 0.1555133830351618 0.1555133830351618
 Cu 0.3394369350317522 0.3394369350317522 0.3394369350317522
 Cu 0.3394369350317522 0.1555133830351618 0.3394369350317522
 Cu 0.1555133830351618 0.3394369350317522 0.1555133830351618
 As 0.1555133830351618 0.3394369350317522 0.3394369350317522
 Cu 0.3394369350317522 0.1555133830351618 0.1555133830351618
 Cu 0.1237375913505121 0.0 0.2474751827010242
 Cu 0.37121277405153624 0.0 0.2474751827010242
 Cu 0.2474751827010242 0.1237375913505121 0.0
 As 0.2474751827010242 0.37121277405153624 0.0
 Cu 0.0 0.2474751827010242 0.1237375913505121
 As 0.0 0.2474751827010242 0.37121277405153624
 Ba 0.0 0.0 0.5
 Ba 0.2474751827010242 0.2474751827010242 0.7474751827010242
 Ba 0.0 0.36883702365803867 0.7563842703442073
 Ba 0.0 0.12611334174400968 0.7563842703442073
 Ba 0.12611334174400968 0.2563842703442073 0.5
 Ba 0.3735885244450338 0.2474751827010242 0.5089090876431831
 Ba 0.2474751827010242 0.008909087643183126 0.8735885244450338
 Ba 0.2474751827010242 0.008909087643183126 0.6213618409570145
 Cu 0.0 0.15204873521086085 0.5586516396009531
 As 0.0 0.3429015828560531 0.9362987258010952
 As 0.0 0.3429015828560531 0.5586516396009531
 As 0.0 0.15204873521086085 0.9362987258010952
 As 0.05865163960095318 0.0 0.6520487352108609
 As 0.43629872580109513 0.0 0.8429015828560531
 As 0.05865163960095318 0.0 0.8429015828560531
 As 0.43629872580109513 0.0 0.6520487352108609
 Cu 0.15204873521086085 0.05865163960095318 0.5
 Cu 0.3429015828560531 0.43629872580109513 0.5
 Cu 0.3429015828560531 0.05865163960095318 0.5
 Cu 0.15204873521086085 0.43629872580109513 0.5
 Cu 0.399523917911885 0.2474751827010242 0.688823543100071
 Cu 0.09542640015502893 0.2474751827010242 0.806126774966843
 Cu 0.09542640015502893 0.2474751827010242 0.688823543100071
 Cu 0.399523917911885 0.2474751827010242 0.806126774966843
 Cu 0.2474751827010242 0.306126774966843 0.595426400155029
 Cu 0.2474751827010242 0.188823543100071 0.8995239179118851
 Cu 0.2474751827010242 0.306126774966843 0.8995239179118851
 Cu 0.2474751827010242 0.188823543100071 0.595426400155029
 Cu 0.306126774966843 0.399523917911885 0.7474751827010242
 As 0.188823543100071 0.09542640015502893 0.7474751827010242
 Cu 0.306126774966843 0.09542640015502893 0.7474751827010242
 Cu 0.188823543100071 0.399523917911885 0.7474751827010242
 Cu 0.09196179966586239 0.09196179966586239 0.5919617996658624
 Cu 0.40298856573618597 0.40298856573618597 0.902988565736186
 Cu 0.40298856573618597 0.40298856573618597 0.5919617996658624
 Cu 0.09196179966586239 0.09196179966586239 0.902988565736186
 Cu 0.40298856573618597 0.09196179966586239 0.902988565736186
 Cu 0.09196179966586239 0.40298856573618597 0.5919617996658624
 Cu 0.09196179966586239 0.40298856573618597 0.902988565736186
 Cu 0.40298856573618597 0.09196179966586239 0.5919617996658624
 As 0.3394369350317522 0.3394369350317522 0.6555133830351618
 Cu 0.1555133830351618 0.1555133830351618 0.8394369350317522
 Cu 0.1555133830351618 0.1555133830351618 0.6555133830351618
 As 0.3394369350317522 0.3394369350317522 0.8394369350317522
 As 0.3394369350317522 0.1555133830351618 0.8394369350317522
 As 0.1555133830351618 0.3394369350317522 0.6555133830351618
 As 0.1555133830351618 0.3394369350317522 0.8394369350317522
 As 0.3394369350317522 0.1555133830351618 0.6555133830351618
 Cu 0.1237375913505121 0.0 0.7474751827010242
 Cu 0.37121277405153624 0.0 0.7474751827010242
 As 0.2474751827010242 0.1237375913505121 0.5
 As 0.2474751827010242 0.37121277405153624 0.5
 Cu 0.0 0.2474751827010242 0.6237375913505121
 Cu 0.0 0.2474751827010242 0.8712127740515363
 Ba 0.0 0.5 0.0
 Ba 0.2474751827010242 0.7474751827010242 0.2474751827010242
 Ba 0.0 0.8688370236580387 0.2563842703442073
 Ba 0.0 0.6261133417440097 0.2563842703442073
 Ba 0.12611334174400968 0.7563842703442073 0.0
 Ba 0.3735885244450338 0.7474751827010242 0.008909087643183126
 Ba 0.2474751827010242 0.5089090876431831 0.3735885244450338
 Ba 0.2474751827010242 0.5089090876431831 0.1213618409570145
 Cu 0.0 0.6520487352108609 0.05865163960095318
 Cu 0.0 0.8429015828560531 0.43629872580109513
 Cu 0.0 0.8429015828560531 0.05865163960095318
 Cu 0.0 0.6520487352108609 0.43629872580109513
 Cu 0.05865163960095318 0.5 0.15204873521086085
 Cu 0.43629872580109513 0.5 0.3429015828560531
 Cu 0.05865163960095318 0.5 0.3429015828560531
 As 0.43629872580109513 0.5 0.15204873521086085
 Cu 0.15204873521086085 0.5586516396009531 0.0
 Cu 0.3429015828560531 0.9362987258010952 0.0
 Cu 0.3429015828560531 0.5586516396009531 0.0
 Cu 0.15204873521086085 0.9362987258010952 0.0
 Cu 0.399523917911885 0.7474751827010242 0.188823543100071
 Cu 0.09542640015502893 0.7474751827010242 0.306126774966843
 Cu 0.09542640015502893 0.7474751827010242 0.188823543100071
 Cu 0.399523917911885 0.7474751827010242 0.306126774966843
 Cu 0.2474751827010242 0.806126774966843 0.09542640015502893
 Cu 0.2474751827010242 0.688823543100071 0.399523917911885
 Cu 0.2474751827010242 0.806126774966843 0.399523917911885
 Cu 0.2474751827010242 0.688823543100071 0.09542640015502893
 Cu 0.306126774966843 0.8995239179118851 0.2474751827010242
 Cu 0.188823543100071 0.595426400155029 0.2474751827010242
 Cu 0.306126774966843 0.595426400155029 0.2474751827010242
 Cu 0.188823543100071 0.8995239179118851 0.2474751827010242
 As 0.09196179966586239 0.5919617996658624 0.09196179966586239
 Cu 0.40298856573618597 0.902988565736186 0.40298856573618597
 Cu 0.40298856573618597 0.902988565736186 0.09196179966586239
 Cu 0.09196179966586239 0.5919617996658624 0.40298856573618597
 Cu 0.40298856573618597 0.5919617996658624 0.40298856573618597
 Cu 0.09196179966586239 0.902988565736186 0.09196179966586239
 Cu 0.09196179966586239 0.902988565736186 0.40298856573618597
 Cu 0.40298856573618597 0.5919617996658624 0.09196179966586239
 As 0.3394369350317522 0.8394369350317522 0.1555133830351618
 As 0.1555133830351618 0.6555133830351618 0.3394369350317522
 Cu 0.1555133830351618 0.6555133830351618 0.1555133830351618
 As 0.3394369350317522 0.8394369350317522 0.3394369350317522
 As 0.3394369350317522 0.6555133830351618 0.3394369350317522
 Cu 0.1555133830351618 0.8394369350317522 0.1555133830351618
 As 0.1555133830351618 0.8394369350317522 0.3394369350317522
 Cu 0.3394369350317522 0.6555133830351618 0.1555133830351618
 As 0.1237375913505121 0.5 0.2474751827010242
 Cu 0.37121277405153624 0.5 0.2474751827010242
 As 0.2474751827010242 0.6237375913505121 0.0
 As 0.2474751827010242 0.8712127740515363 0.0
 As 0.0 0.7474751827010242 0.1237375913505121
 As 0.0 0.7474751827010242 0.37121277405153624
 Ba 0.0 0.5 0.5
 Ba 0.2474751827010242 0.7474751827010242 0.7474751827010242
 Ba 0.0 0.8688370236580387 0.7563842703442073
 Ba 0.0 0.6261133417440097 0.7563842703442073
 Ba 0.12611334174400968 0.7563842703442073 0.5
 Ba 0.3735885244450338 0.7474751827010242 0.5089090876431831
 Ba 0.2474751827010242 0.5089090876431831 0.8735885244450338
 Ba 0.2474751827010242 0.5089090876431831 0.6213618409570145
 As 0.0 0.6520487352108609 0.5586516396009531
 As 0.0 0.8429015828560531 0.9362987258010952
 As 0.0 0.8429015828560531 0.5586516396009531
 As 0.0 0.6520487352108609 0.9362987258010952
 As 0.05865163960095318 0.5 0.6520487352108609
 Cu 0.43629872580109513 0.5 0.8429015828560531
 As 0.05865163960095318 0.5 0.8429015828560531
 As 0.43629872580109513 0.5 0.6520487352108609
 As 0.15204873521086085 0.5586516396009531 0.5
 As 0.3429015828560531 0.9362987258010952 0.5
 As 0.3429015828560531 0.5586516396009531 0.5
 As 0.15204873521086085 0.9362987258010952 0.5
 As 0.399523917911885 0.7474751827010242 0.688823543100071
 Cu 0.09542640015502893 0.7474751827010242 0.806126774966843
 Cu 0.09542640015502893 0.7474751827010242 0.688823543100071
 Cu 0.399523917911885 0.7474751827010242 0.806126774966843
 Cu 0.2474751827010242 0.806126774966843 0.595426400155029
 As 0.2474751827010242 0.688823543100071 0.8995239179118851
 Cu 0.2474751827010242 0.806126774966843 0.8995239179118851
 As 0.2474751827010242 0.688823543100071 0.595426400155029
 As 0.306126774966843 0.8995239179118851 0.7474751827010242
 As 0.188823543100071 0.595426400155029 0.7474751827010242
 Cu 0.306126774966843 0.595426400155029 0.7474751827010242
 Cu 0.188823543100071 0.8995239179118851 0.7474751827010242
 Cu 0.09196179966586239 0.5919617996658624 0.5919617996658624
 Cu 0.40298856573618597 0.902988565736186 0.902988565736186
 Cu 0.40298856573618597 0.902988565736186 0.5919617996658624
 Cu 0.09196179966586239 0.5919617996658624 0.902988565736186
 As 0.40298856573618597 0.5919617996658624 0.902988565736186
 Cu 0.09196179966586239 0.902988565736186 0.5919617996658624
 Cu 0.09196179966586239 0.902988565736186 0.902988565736186
 Cu 0.40298856573618597 0.5919617996658624 0.5919617996658624
 Cu 0.3394369350317522 0.8394369350317522 0.6555133830351618
 Cu 0.1555133830351618 0.6555133830351618 0.8394369350317522
 Cu 0.1555133830351618 0.6555133830351618 0.6555133830351618
 Cu 0.3394369350317522 0.8394369350317522 0.8394369350317522
 Cu 0.3394369350317522 0.6555133830351618 0.8394369350317522
 As 0.1555133830351618 0.8394369350317522 0.6555133830351618
 As 0.1555133830351618 0.8394369350317522 0.8394369350317522
 Cu 0.3394369350317522 0.6555133830351618 0.6555133830351618
 Cu 0.1237375913505121 0.5 0.7474751827010242
 Cu 0.37121277405153624 0.5 0.7474751827010242
 Cu 0.2474751827010242 0.6237375913505121 0.5
 Cu 0.2474751827010242 0.8712127740515363 0.5
 Cu 0.0 0.7474751827010242 0.6237375913505121
 Cu 0.0 0.7474751827010242 0.8712127740515363
 Ba 0.5 0.0 0.0
 Ba 0.7474751827010242 0.2474751827010242 0.2474751827010242
 Ba 0.5 0.36883702365803867 0.2563842703442073
 Ba 0.5 0.12611334174400968 0.2563842703442073
 Ba 0.6261133417440097 0.2563842703442073 0.0
 Ba 0.8735885244450338 0.2474751827010242 0.008909087643183126
 Ba 0.7474751827010242 0.008909087643183126 0.3735885244450338
 Ba 0.7474751827010242 0.008909087643183126 0.1213618409570145
 As 0.5 0.15204873521086085 0.05865163960095318
 Cu 0.5 0.3429015828560531 0.43629872580109513
 As 0.5 0.3429015828560531 0.05865163960095318
 Cu 0.5 0.15204873521086085 0.43629872580109513
 Cu 0.5586516396009531 0.0 0.15204873521086085
 Cu 0.9362987258010952 0.0 0.3429015828560531
 As 0.5586516396009531 0.0 0.3429015828560531
 Cu 0.9362987258010952 0.0 0.15204873521086085
 As 0.6520487352108609 0.05865163960095318 0.0
 As 0.8429015828560531 0.43629872580109513 0.0
 As 0.8429015828560531 0.05865163960095318 0.0
 As 0.6520487352108609 0.43629872580109513 0.0
 Cu 0.8995239179118851 0.2474751827010242 0.188823543100071
 Cu 0.595426400155029 0.2474751827010242 0.306126774966843
 Cu 0.595426400155029 0.2474751827010242 0.188823543100071
 Cu 0.8995239179118851 0.2474751827010242 0.306126774966843
 Cu 0.7474751827010242 0.306126774966843 0.09542640015502893
 As 0.7474751827010242 0.188823543100071 0.399523917911885
 Cu 0.7474751827010242 0.306126774966843 0.399523917911885
 As 0.7474751827010242 0.188823543100071 0.09542640015502893
 Cu 0.806126774966843 0.399523917911885 0.2474751827010242
 As 0.688823543100071 0.09542640015502893 0.2474751827010242
 Cu 0.806126774966843 0.09542640015502893 0.2474751827010242
 Cu 0.688823543100071 0.399523917911885 0.2474751827010242
 Cu 0.5919617996658624 0.09196179966586239 0.09196179966586239
 Cu 0.902988565736186 0.40298856573618597 0.40298856573618597
 Cu 0.902988565736186 0.40298856573618597 0.09196179966586239
 Cu 0.5919617996658624 0.09196179966586239 0.40298856573618597
 As 0.902988565736186 0.09196179966586239 0.40298856573618597
 Cu 0.5919617996658624 0.40298856573618597 0.09196179966586239
 As 0.5919617996658624 0.40298856573618597 0.40298856573618597
 Cu 0.902988565736186 0.09196179966586239 0.09196179966586239
 As 0.8394369350317522 0.3394369350317522 0.1555133830351618
 Cu 0.6555133830351618 0.1555133830351618 0.3394369350317522
 Cu 0.6555133830351618 0.1555133830351618 0.1555133830351618
 As 0.8394369350317522 0.3394369350317522 0.3394369350317522
 Cu 0.8394369350317522 0.1555133830351618 0.3394369350317522
 As 0.6555133830351618 0.3394369350317522 0.1555133830351618
 Cu 0.6555133830351618 0.3394369350317522 0.3394369350317522
 Cu 0.8394369350317522 0.1555133830351618 0.1555133830351618
 Cu 0.6237375913505121 0.0 0.2474751827010242
 As 0.8712127740515363 0.0 0.2474751827010242
 Cu 0.7474751827010242 0.1237375913505121 0.0
 Cu 0.7474751827010242 0.37121277405153624 0.0
 Cu 0.5 0.2474751827010242 0.1237375913505121
 As 0.5 0.2474751827010242 0.37121277405153624
 Ba 0.5 0.0 0.5
 Ba 0.7474751827010242 0.2474751827010242 0.7474751827010242
 Ba 0.5 0.36883702365803867 0.7563842703442073
 Ba 0.5 0.12611334174400968 0.7563842703442073
 Ba 0.6261133417440097 0.2563842703442073 0.5
 Ba 0.8735885244450338 0.2474751827010242 0.5089090876431831
 Ba 0.7474751827010242 0.008909087643183126 0.8735885244450338
 Ba 0.7474751827010242 0.008909087643183126 0.6213618409570145
 Cu 0.5 0.15204873521086085 0.5586516396009531
 As 0.5 0.3429015828560531 0.9362987258010952
 Cu 0.5 0.3429015828560531 0.5586516396009531
 As 0.5 0.15204873521086085 0.9362987258010952
 Cu 0.5586516396009531 0.0 0.6520487352108609
 As 0.9362987258010952 0.0 0.8429015828560531
 Cu 0.5586516396009531 0.0 0.8429015828560531
 Cu 0.9362987258010952 0.0 0.6520487352108609
 As 0.6520487352108609 0.05865163960095318 0.5
 As 0.8429015828560531 0.43629872580109513 0.5
 Cu 0.8429015828560531 0.05865163960095318 0.5
 Cu 0.6520487352108609 0.43629872580109513 0.5
 As 0.8995239179118851 0.2474751827010242 0.688823543100071
 Cu 0.595426400155029 0.2474751827010242 0.806126774966843
 Cu 0.595426400155029 0.2474751827010242 0.688823543100071
 Cu 0.8995239179118851 0.2474751827010242 0.806126774966843
 Cu 0.7474751827010242 0.306126774966843 0.595426400155029
 Cu 0.7474751827010242 0.188823543100071 0.8995239179118851
 Cu 0.7474751827010242 0.306126774966843 0.8995239179118851
 As 0.7474751827010242 0.188823543100071 0.595426400155029
 Cu 0.806126774966843 0.399523917911885 0.7474751827010242
 Cu 0.688823543100071 0.09542640015502893 0.7474751827010242
 As 0.806126774966843 0.09542640015502893 0.7474751827010242
 Cu 0.688823543100071 0.399523917911885 0.7474751827010242
 Cu 0.5919617996658624 0.09196179966586239 0.5919617996658624
 As 0.902988565736186 0.40298856573618597 0.902988565736186
 Cu 0.902988565736186 0.40298856573618597 0.5919617996658624
 Cu 0.5919617996658624 0.09196179966586239 0.902988565736186
 Cu 0.902988565736186 0.09196179966586239 0.902988565736186
 Cu 0.5919617996658624 0.40298856573618597 0.5919617996658624
 Cu 0.5919617996658624 0.40298856573618597 0.902988565736186
 As 0.902988565736186 0.09196179966586239 0.5919617996658624
 Cu 0.8394369350317522 0.3394369350317522 0.6555133830351618
 As 0.6555133830351618 0.1555133830351618 0.8394369350317522
 Cu 0.6555133830351618 0.1555133830351618 0.6555133830351618
 Cu 0.8394369350317522 0.3394369350317522 0.8394369350317522
 Cu 0.8394369350317522 0.1555133830351618 0.8394369350317522
 As 0.6555133830351618 0.3394369350317522 0.6555133830351618
 As 0.6555133830351618 0.3394369350317522 0.8394369350317522
 Cu 0.8394369350317522 0.1555133830351618 0.6555133830351618
 As 0.6237375913505121 0.0 0.7474751827010242
 Cu 0.8712127740515363 0.0 0.7474751827010242
 Cu 0.7474751827010242 0.1237375913505121 0.5
 Cu 0.7474751827010242 0.37121277405153624 0.5
 As 0.5 0.2474751827010242 0.6237375913505121
 Cu 0.5 0.2474751827010242 0.8712127740515363
 Ba 0.5 0.5 0.0
 Ba 0.7474751827010242 0.7474751827010242 0.2474751827010242
 Ba 0.5 0.8688370236580387 0.2563842703442073
 Ba 0.5 0.6261133417440097 0.2563842703442073
 Ba 0.6261133417440097 0.7563842703442073 0.0
 Ba 0.8735885244450338 0.7474751827010242 0.008909087643183126
 Ba 0.7474751827010242 0.5089090876431831 0.3735885244450338
 Ba 0.7474751827010242 0.5089090876431831 0.1213618409570145
 Cu 0.5 0.6520487352108609 0.05865163960095318
 Cu 0.5 0.8429015828560531 0.43629872580109513
 As 0.5 0.8429015828560531 0.05865163960095318
 Cu 0.5 0.6520487352108609 0.43629872580109513
 Cu 0.5586516396009531 0.5 0.15204873521086085
 As 0.9362987258010952 0.5 0.3429015828560531
 Cu 0.5586516396009531 0.5 0.3429015828560531
 As 0.9362987258010952 0.5 0.15204873521086085
 Cu 0.6520487352108609 0.5586516396009531 0.0
 Cu 0.8429015828560531 0.9362987258010952 0.0
 Cu 0.8429015828560531 0.5586516396009531 0.0
 Cu 0.6520487352108609 0.9362987258010952 0.0
 Cu 0.8995239179118851 0.7474751827010242 0.188823543100071
 Cu 0.595426400155029 0.7474751827010242 0.306126774966843
 As 0.595426400155029 0.7474751827010242 0.188823543100071
 As 0.8995239179118851 0.7474751827010242 0.306126774966843
 Cu 0.7474751827010242 0.806126774966843 0.09542640015502893
 Cu 0.7474751827010242 0.688823543100071 0.399523917911885
 As 0.7474751827010242 0.806126774966843 0.399523917911885
 Cu 0.7474751827010242 0.688823543100071 0.09542640015502893
 Cu 0.806126774966843 0.8995239179118851 0.2474751827010242
 Cu 0.688823543100071 0.595426400155029 0.2474751827010242
 As 0.806126774966843 0.595426400155029 0.2474751827010242
 As 0.688823543100071 0.8995239179118851 0.2474751827010242
 As 0.5919617996658624 0.5919617996658624 0.09196179966586239
 As 0.902988565736186 0.902988565736186 0.40298856573618597
 Cu 0.902988565736186 0.902988565736186 0.09196179966586239
 Cu 0.5919617996658624 0.5919617996658624 0.40298856573618597
 Cu 0.902988565736186 0.5919617996658624 0.40298856573618597
 Cu 0.5919617996658624 0.902988565736186 0.09196179966586239
 As 0.5919617996658624 0.902988565736186 0.40298856573618597
 Cu 0.902988565736186 0.5919617996658624 0.09196179966586239
 As 0.8394369350317522 0.8394369350317522 0.1555133830351618
 As 0.6555133830351618 0.6555133830351618 0.3394369350317522
 Cu 0.6555133830351618 0.6555133830351618 0.1555133830351618
 Cu 0.8394369350317522 0.8394369350317522 0.3394369350317522
 Cu 0.8394369350317522 0.6555133830351618 0.3394369350317522
 Cu 0.6555133830351618 0.8394369350317522 0.1555133830351618
 Cu 0.6555133830351618 0.8394369350317522 0.3394369350317522
 Cu 0.8394369350317522 0.6555133830351618 0.1555133830351618
 As 0.6237375913505121 0.5 0.2474751827010242
 Cu 0.8712127740515363 0.5 0.2474751827010242
 As 0.7474751827010242 0.6237375913505121 0.0
 As 0.7474751827010242 0.8712127740515363 0.0
 Cu 0.5 0.7474751827010242 0.1237375913505121
 As 0.5 0.7474751827010242 0.37121277405153624
 Ba 0.5 0.5 0.5
 Ba 0.7474751827010242 0.7474751827010242 0.7474751827010242
 Ba 0.5 0.8688370236580387 0.7563842703442073
 Ba 0.5 0.6261133417440097 0.7563842703442073
 Ba 0.6261133417440097 0.7563842703442073 0.5
 Ba 0.8735885244450338 0.7474751827010242 0.5089090876431831
 Ba 0.7474751827010242 0.5089090876431831 0.8735885244450338
 Ba 0.7474751827010242 0.5089090876431831 0.6213618409570145
 Cu 0.5 0.6520487352108609 0.5586516396009531
 As 0.5 0.8429015828560531 0.9362987258010952
 Cu 0.5 0.8429015828560531 0.5586516396009531
 Cu 0.5 0.6520487352108609 0.9362987258010952
 Cu 0.5586516396009531 0.5 0.6520487352108609
 Cu 0.9362987258010952 0.5 0.8429015828560531
 Cu 0.5586516396009531 0.5 0.8429015828560531
 As 0.9362987258010952 0.5 0.6520487352108609
 Cu 0.6520487352108609 0.5586516396009531 0.5
 Cu 0.8429015828560531 0.9362987258010952 0.5
 Cu 0.8429015828560531 0.5586516396009531 0.5
 Cu 0.6520487352108609 0.9362987258010952 0.5
 As 0.8995239179118851 0.7474751827010242 0.688823543100071
 Cu 0.595426400155029 0.7474751827010242 0.806126774966843
 As 0.595426400155029 0.7474751827010242 0.688823543100071
 Cu 0.8995239179118851 0.7474751827010242 0.806126774966843
 As 0.7474751827010242 0.806126774966843 0.595426400155029
 Cu 0.7474751827010242 0.688823543100071 0.8995239179118851
 Cu 0.7474751827010242 0.806126774966843 0.8995239179118851
 Cu 0.7474751827010242 0.688823543100071 0.595426400155029
 Cu 0.806126774966843 0.8995239179118851 0.7474751827010242
 Cu 0.688823543100071 0.595426400155029 0.7474751827010242
 As 0.806126774966843 0.595426400155029 0.7474751827010242
 Cu 0.688823543100071 0.8995239179118851 0.7474751827010242
 As 0.5919617996658624 0.5919617996658624 0.5919617996658624
 Cu 0.902988565736186 0.902988565736186 0.902988565736186
 As 0.902988565736186 0.902988565736186 0.5919617996658624
 Cu 0.5919617996658624 0.5919617996658624 0.902988565736186
 As 0.902988565736186 0.5919617996658624 0.902988565736186
 As 0.5919617996658624 0.902988565736186 0.5919617996658624
 Cu 0.5919617996658624 0.902988565736186 0.902988565736186
 Cu 0.902988565736186 0.5919617996658624 0.5919617996658624
 Cu 0.8394369350317522 0.8394369350317522 0.6555133830351618
 As 0.6555133830351618 0.6555133830351618 0.8394369350317522
 Cu 0.6555133830351618 0.6555133830351618 0.6555133830351618
 As 0.8394369350317522 0.8394369350317522 0.8394369350317522
 Cu 0.8394369350317522 0.6555133830351618 0.8394369350317522
 Cu 0.6555133830351618 0.8394369350317522 0.6555133830351618
 As 0.6555133830351618 0.8394369350317522 0.8394369350317522
 Cu 0.8394369350317522 0.6555133830351618 0.6555133830351618
 As 0.6237375913505121 0.5 0.7474751827010242
 Cu 0.8712127740515363 0.5 0.7474751827010242
 As 0.7474751827010242 0.6237375913505121 0.5
 Cu 0.7474751827010242 0.8712127740515363 0.5
 Cu 0.5 0.7474751827010242 0.6237375913505121
 Cu 0.5 0.7474751827010242 0.8712127740515363

K_POINTS gamma

