&GLOBAL
  PROJECT Cs8_In27_As19
  RUN_TYPE ENERGY
  PRINT_LEVEL HIGH
&END GLOBAL
&FORCE_EVAL
  METHOD Quickstep
  &SUBSYS
    &KIND As
      BASIS_SET cFIT9
      POTENTIAL GTH-BLYP-q5
    &END KIND
    &KIND In
      BASIS_SET cFIT9
      POTENTIAL GTH-BLYP-q3
    &END KIND
    &KIND Cs
      BASIS_SET cFIT9
      POTENTIAL GTH-BLYP-q9
    &END KIND
    &CELL
      A [bohr] 38.97268425 -0.000702904 -0.001214494
      B [bohr] -12.990765021 36.743778141 -0.001224408
      C [bohr] -12.990762658 -18.371272823 31.82127996
    &END CELL
    &COORD
      SCALED
      Cs 0.0 0.0 0.0
      Cs -0.0 0.5 0.5
      Cs 0.5 0.0 0.5
      Cs 0.5 0.5 0.0
      Cs 0.3753064922 0.250092349 0.1266058936
      Cs 0.8765230157 0.2499073075 0.6252005373
      Cs 0.6234848923 0.2486891855 0.3733904322
      Cs 0.1247078211 0.2513136657 0.8748002819
      Cs 0.7513313254 0.8748024824 0.6247185749
      Cs 0.8733861242 0.1234943651 0.2486874013
      Cs 0.7499260871 0.6252231584 0.3765328576
      Cs 0.3747979811 0.6247031781 0.2513117381
      Cs 0.7500871087 0.1266090742 0.8752819003
      Cs 0.6266058196 0.8752962207 0.2500981822
      Cs 0.7486802988 0.3733870371 0.1234771796
      Cs 0.1252013852 0.376515217 0.2499002768
      Cs 0.6246935078 0.749907651 0.8733941064
      Cs 0.1234769843 0.7500926925 0.3747994627
      Cs 0.3765151077 0.7513108145 0.6266095678
      Cs 0.8752921789 0.7486863343 0.1251997181
      Cs 0.2486686746 0.1251975176 0.3752814251
      Cs 0.2500739129 0.3747768416 0.6234671424
      Cs 0.2499128913 0.8733909258 0.1247180997
      Cs 0.2513197012 0.6266129629 0.8765228204
      Cs 0.1266138758 0.8765056349 0.7513125987
      Cs 0.8747986148 0.623484783 0.7500997232
      Cs 0.6252020189 0.3752968219 0.7486882619
      Cs 0.3733941804 0.1247037793 0.7499018178
      Cs 0.5 -0.0 -0.0
      Cs 0.0 0.5 0.0
      Cs 0.5 0.5 0.5
      Cs 0.0 0.0 0.5
      In 0.0931870048 0.938525896 0.155746873
      In 0.2172467376 0.5614491387 0.654660233
      In 0.2827503822 0.9374231715 0.3442242913
      In 0.4067731694 0.5625672747 0.8453193296
      In 0.0625972452 0.8453370346 0.9067969333
      In 0.8441833846 0.7827516146 0.9374245694
      In 0.0614674355 0.654651518 0.7172595743
      In 0.345317567 0.9067729509 0.5625784404
      In 0.4385562757 0.1557979963 0.5932091992
      In 0.6557886472 0.5932047557 0.9385502919
      In 0.4374030349 0.3442147504 0.7827422419
      In 0.1546605608 0.7172493255 0.5614713926
      In 0.9068129952 0.061474104 0.844253127
      In 0.7827532624 0.4385508613 0.345339767
      In 0.7172496178 0.0625768285 0.6557757087
      In 0.5932268306 0.4374327253 0.1546806704
      In 0.9374027548 0.1546629654 0.0932030667
      In 0.9385325645 0.345348482 0.2827404257
      In 0.5614437243 0.8442020037 0.4067908008
      In 0.5625969651 0.6557852496 0.2172577581
      In 0.1558166154 0.2172483854 0.0625754306
      In 0.8453394392 0.2827506745 0.4385286074
      In 0.654682433 0.0932270491 0.4374215596
      In 0.3442113528 0.4067952443 0.0614497081
      In 0.2871367761 0.8498268781 0.938792136
      In 0.0889502224 0.6501821874 0.9373138808
      In 0.411057356 0.3483575564 0.5612278419
      In 0.2128893223 0.1516427218 0.5627083937
      In 0.6516423648 0.5627011096 0.7128930831
      In 0.0612387694 0.9110658605 0.34833997
      In 0.1501846959 0.9372985736 0.5889410581
      In 0.0627002159 0.7128881978 0.1516469432
      In 0.3498196318 0.9387661406 0.7871336301
      In 0.4387619466 0.7871202689 0.8498179719
      In 0.8483507959 0.561224695 0.9110574216
      In 0.4373066731 0.5889503464 0.6501919824
      In 0.7128632239 0.1501731219 0.061207864
      In 0.9110497776 0.3498178126 0.0626861192
      In 0.588942644 0.6516424436 0.4387721581
      In 0.7871106777 0.8483572782 0.4372916063
      In 0.3483576352 0.4372988904 0.2871069169
      In 0.8498153041 0.0627014264 0.4110589419
      In 0.6501803682 0.0612338594 0.2128663699
      In 0.1516492041 0.438775305 0.0889425784
      In 0.9387612306 0.0889341395 0.65166003
      In 0.5626933269 0.4110496536 0.3498080176
      In 0.9372997841 0.2871118022 0.8483530568
      In 0.5612380534 0.2128797311 0.1501820281
      In 0.3788571415 0.1288492649 0.2500117349
      In 0.1211410557 0.3711348668 0.7499875883
      In 0.8711652773 0.7499963355 0.6211637364
      In 0.7499859353 0.87883357 0.1288465677
      In 0.6288316333 0.2500067269 0.8788293999
      In 0.249997287 0.6211493905 0.3711529411
      In 0.6211428585 0.8711507351 0.7499882651
      In 0.8788589443 0.6288651332 0.2500124117
      In 0.1288347227 0.2500036645 0.3788362636
      In 0.3711683667 0.7499932731 0.1211706001
      In 0.2500140647 0.12116643 0.8711534323
      In 0.750002713 0.3788506095 0.6288470589
      In 0.2140593194 0.0614777614 0.1523086109
      In 0.0908280094 0.4385251509 0.6525808349
      In 0.4091662433 0.0617470912 0.3477064804
      In 0.2859359404 0.4382364096 0.8474076657
      In 0.9382517534 0.847415417 0.7859603901
      In 0.8476948718 0.9091874035 0.0617694518
      In 0.938543253 0.6525762879 0.5908423366
      In 0.3474126867 0.7859446068 0.4382445047
      In 0.5614690909 0.1522848745 0.7140411085
      In 0.6522814796 0.7140382282 0.0614620959
      In 0.561735874 0.3477061434 0.9091591617
      In 0.1525928205 0.5908461174 0.4385488052
      In 0.7859406806 0.9385222386 0.8476913891
      In 0.9091719906 0.5614748491 0.3474191651
      In 0.5908337567 0.9382529088 0.6522935196
      In 0.7140640596 0.5617635904 0.1525923343
      In 0.0617482466 0.152584583 0.2140396099
      In 0.061456747 0.3474237121 0.4091576634
      In 0.4385309091 0.8477151255 0.2859588915
      In 0.438264126 0.6522938566 0.0908408383
      In 0.1523051282 0.0908125965 0.9382305482
      In 0.8474071795 0.4091538826 0.5614511948
      In 0.6525873133 0.2140553932 0.5617554953
      In 0.3477185204 0.2859617718 0.9385379041
      In 0.3176414544 0.0089759211 0.0034154302
      In 0.9944469503 0.4910314693 0.8086705006
      In 0.5055761254 0.314236832 0.4965962262
      In 0.1823596652 0.1857595506 0.6913366733
      In 0.6857748839 0.6913286334 0.6823686009
      In 0.9965916641 0.0055740627 0.3142221008
      In 0.9910321242 0.8086684949 0.4944397787
      In 0.1913323934 0.6823694299 0.1857817741
      In 0.5089607539 0.0034036364 0.8176238071
      In 0.50340183 0.8176295657 0.0089664329
      In 0.81422518 0.4965884876 0.0055683661
      In 0.3086707873 0.4944372958 0.4910408134
      In 0.6823585456 0.9910240789 0.9965845698
      In 0.0055530497 0.5089685307 0.1913294994
      In 0.4944238746 0.685763168 0.5034037738
      In 0.8176403348 0.8142404494 0.3086633267
      In 0.3142251161 0.3086713666 0.3176313991
      In 0.0089678758 0.1913315051 0.5055602213
      In 0.4910392461 0.9965963636 0.1823761929
      In 0.18577482 0.5034115124 0.9944316339
      In 0.0034083359 0.9944259373 0.6857778992
      In 0.6913292127 0.5055627042 0.5089591866
      In 0.8086676066 0.3176305701 0.8142182259
      In 0.49659817 0.1823704343 0.9910335671
      As 0.309100518 0.8091020575 0.8091133891
      As -3.8875e-06 0.6908978702 -7.248e-07
      As 0.4999971375 0.5000007854 0.690903116
      As 0.1909002836 -3.7478e-06 0.4999945966
      As 0.690899482 0.1908979425 0.1908866109
      As 3.8875e-06 0.3091021298 7.248e-07
      As 0.5000028625 0.4999992146 0.309096884
      As 0.8090997164 3.7478e-06 0.5000054034
      As 0.183682627 0.0002715884 6.53221e-05
      As 0.9997847255 0.4997184761 0.6834015858
      As 0.500216294 0.1836233854 0.4999446512
      As 0.3163240354 0.3163824632 0.8165923182
      As 0.8163858117 0.8165926837 0.8163341302
      As 0.9999467768 0.0002130683 0.1836102295
      As 0.9997328353 0.6834101979 0.4997988587
      As 0.3165947261 0.8163376186 0.3163935438
      As 0.5002583046 4.5032e-05 0.6836615726
      As 0.5000431606 0.6836632809 0.0002579127
      As 0.6836161086 0.4999430947 0.000214667
      As 0.1834088786 0.4997936342 0.4997326094
      As 0.816317373 0.9997284116 0.9999346779
      As 0.0002152745 0.5002815239 0.3165984142
      As 0.499783706 0.8163766146 0.5000553488
      As 0.6836759646 0.6836175368 0.1834076818
      As 0.1836141883 0.1834073163 0.1836658698
      As 0.0002671647 0.3165898021 0.5002011413
      As 0.4997416954 0.999954968 0.3163384274
      As 0.3163838914 0.5000569053 0.999785333
      As 5.32232e-05 0.9997869317 0.8163897705
      As 0.8165911214 0.5002063658 0.5002673906
      As 0.6834052739 0.1836623814 0.6836064562
      As 0.4999568394 0.3163367191 0.9997420873
      As 0.1894884177 0.6894806596 0.6894936031
      As -2.49864e-05 0.8104949983 -2.78586e-05
      As 0.4999944122 0.5000025056 0.8105150195
      As 0.3105187965 3.2e-08 0.500011171
      As 0.8105115823 0.3105193404 0.3105063969
      As 2.49864e-05 0.1895050017 2.78586e-05
      As 0.5000055878 0.4999974944 0.1894849805
      As 0.6894812035 -3.2e-08 0.499988829
      As 0.1299927195 0.7499994539 0.8799958909
      As 0.3700238314 0.2500013725 0.6200122075
      As 0.7499954019 0.6200109027 0.8700273172
      As 0.1200187131 0.8700289719 0.249987576
      As 0.2499986285 0.8799824631 0.6299920791
      As 0.3799806918 0.6299810345 0.7500002477
      As 0.8700072805 0.2500005461 0.1200041091
      As 0.6299761686 0.7499986275 0.3799877925
      As 0.2500045981 0.3799890973 0.1299726828
      As 0.7500013715 0.1200175369 0.3700079209
      As 0.8799812869 0.1299710281 0.750012424
      As 0.6200193082 0.3700189655 0.2499997523
      As 0.4445073541 0.1007221292 0.1555406843
      As 0.054809457 0.3992744391 0.8437750289
      As 0.4451866215 0.2889723668 0.3444710453
      As 0.055494564 0.2110138485 0.6562148849
      As 0.7110357664 0.6562223468 0.5555074182
      As 0.8444724419 0.9451971667 0.2889700623
      As 0.8992756922 0.8437707512 0.5548067988
      As 0.1562142004 0.5555022086 0.2110312424
      As 0.6007091335 0.1555342508 0.9444828382
      As 0.6555278109 0.944494313 0.1007110797
      As 0.7889612562 0.3444657925 0.9451749712
      As 0.3437688271 0.5547988944 0.3992764266
      As 0.5554926459 0.8992778708 0.8444593157
      As 0.945190543 0.6007255609 0.1562249711
      As 0.5548133785 0.7110276332 0.6555289547
      As 0.944505436 0.7889861515 0.3437851151
      As 0.2889642336 0.3437776532 0.4444925818
      As 0.1007243078 0.1562292488 0.4451932012
      As 0.3992908665 0.8444657492 0.0555171618
      As 0.2110387438 0.6555342075 0.0548250288
      As 0.1555275581 0.0548028333 0.7110299377
      As 0.6562311729 0.4452011056 0.6007235734
      As 0.8437857996 0.4444977914 0.7889687576
      As 0.3444721891 0.055505687 0.8992889203
    &END COORD
  &END SUBSYS
  &DFT
    BASIS_SET_FILE_NAME BASIS_ADMM_MOLOPT
    POTENTIAL_FILE_NAME GTH_POTENTIALS
    &MGRID
      NGRIDS 4
      CUTOFF 300
      REL_CUTOFF 60
    &END MGRID
    &QS
      EPS_DEFAULT 1.0e-6
    &END QS
    &SCF
      SCF_GUESS ATOMIC
      EPS_SCF 1e-06
      MAX_SCF 100
      &DIAGONALIZATION ON
        ALGORITHM STANDARD
      &END DIAGONALIZATION
      &MIXING T
        METHOD BROYDEN_MIXING
        ALPHA 0.4
        BETA 0.5
        NBROYDEN 8
      &END MIXING
    &END SCF
    &XC
      &XC_FUNCTIONAL PADE
      &END XC_FUNCTIONAL
    &END XC
  &END DFT
  &PRINT
    &FORCES ON
    &END FORCES
  &END PRINT
&END FORCE_EVAL
